Instance name: /home/cuong/CLionProjects/uMV-FSTSP/50_dis_rand_ins/v59
Write arg val: 1

drone speed: 1 miles/minute
uav non-eligible customer: 11 
Printing tau:
0 21.6481 58.733 64.434 49.6003 42.4804 48.8766 59.0039 59.4391 95.2263 94.9023 0 
21.6481 0 45.9169 48.0627 27.9522 20.8323 27.2285 55.4235 55.8587 73.5782 73.2542 21.6481 
58.733 45.9169 0 5.70105 62.444 43.5726 59.1925 101.34 101.776 57.2063 44.5147 58.733 
64.434 48.0627 5.70105 0 64.5898 45.7184 61.3383 103.486 103.921 59.3521 46.6606 64.434 
49.6003 27.9522 62.444 64.5898 0 18.8714 3.25155 38.8964 39.3316 45.626 45.302 49.6003 
42.4804 20.8323 43.5726 45.7184 18.8714 0 15.6198 57.7678 58.203 52.7459 52.422 42.4804 
48.8766 27.2285 59.1925 61.3383 3.25155 15.6198 0 42.148 42.5832 46.3497 46.0257 48.8766 
59.0039 55.4235 101.34 103.486 38.8964 57.7678 42.148 0 16.2602 53.8665 56.8257 59.0039 
59.4391 55.8587 101.776 103.921 39.3316 58.203 42.5832 16.2602 0 44.5693 57.2609 59.4391 
95.2263 73.5782 57.2063 59.3521 45.626 52.7459 46.3497 53.8665 44.5693 0 12.6916 95.2263 
94.9023 73.2542 44.5147 46.6606 45.302 52.422 46.0257 56.8257 57.2609 12.6916 0 94.9023 
0 0 0 0 0 0 0 0 0 0 0 0 
Printing tau_prime:
0 5.8183 19.1983 20.7616 14.1919 11.2691 13.7094 19.1068 21.9512 25.5567 25.1714 0 
5.8183 0 15.6507 17.0628 8.61061 5.55885 8.03251 15.5982 17.6174 19.7387 19.428 5.8183 
19.1983 15.6507 0 1.61526 16.7341 12.3315 15.9119 27.2639 26.989 17.9928 15.209 19.1983 
20.7616 17.0628 1.61526 0 17.5728 13.4482 16.7798 28.1148 27.6155 17.7301 14.7769 20.7616 
14.1919 8.61061 16.7341 17.5728 0 5.34834 0.883295 10.5429 10.644 12.1779 12.9191 14.1919 
11.2691 5.55885 12.3315 13.4482 5.34834 0 4.47565 15.3209 15.947 14.4461 13.9027 11.2691 
13.7094 8.03251 15.9119 16.7798 0.883295 4.47565 0 11.3525 11.5271 12.3016 12.81 13.7094 
19.1068 15.5982 27.2639 28.1148 10.5429 15.3209 11.3525 0 4.31317 18.4655 20.7032 19.1068 
21.9512 17.6174 26.989 27.6155 10.644 15.947 11.5271 4.31317 0 15.4631 18.1183 21.9512 
25.5567 19.7387 17.9928 17.7301 12.1779 14.4461 12.3016 18.4655 15.4631 0 3.36646 25.5567 
25.1714 19.428 15.209 14.7769 12.9191 13.9027 12.81 20.7032 18.1183 3.36646 0 25.1714 
0 0 0 0 0 0 0 0 0 0 0 0 
Version identifier: 22.1.1.0 | 2022-11-28 | 9160aff4d
CPXPARAM_MIP_Tolerances_Integrality              0
Tried aggregator 1 time.
MIP Presolve eliminated 1 rows and 12 columns.
MIP Presolve modified 20 coefficients.
Reduced MIP has 122 rows, 120 columns, and 510 nonzeros.
Reduced MIP has 110 binaries, 0 generals, 0 SOSs, and 0 indicators.
Presolve time = 0.00 sec. (0.27 ticks)
Found incumbent of value 573.656300 after 0.00 sec. (0.75 ticks)
Probing time = 0.00 sec. (0.26 ticks)
Cover probing fixed 0 vars, tightened 10 bounds.
Tried aggregator 1 time.
Detecting symmetries...
MIP Presolve eliminated 10 rows and 0 columns.
MIP Presolve modified 180 coefficients.
Reduced MIP has 112 rows, 120 columns, and 490 nonzeros.
Reduced MIP has 110 binaries, 0 generals, 0 SOSs, and 0 indicators.
Presolve time = 0.00 sec. (0.35 ticks)
Probing time = 0.00 sec. (0.26 ticks)
Clique table members: 67.
MIP emphasis: balance optimality and feasibility.
MIP search method: dynamic search.
Parallel mode: deterministic, using up to 20 threads.
Root relaxation solution time = 0.00 sec. (0.20 ticks)

        Nodes                                         Cuts/
   Node  Left     Objective  IInf  Best Integer    Best Bound    ItCnt     Gap

*     0+    0                          573.6563        0.0000           100.00%
      0     0      174.3796    19      573.6563      174.3796       23   69.60%
*     0+    0                          310.8552      174.3796            43.90%
      0     0      270.5192    18      310.8552      Cuts: 31       46   12.98%
      0     0      270.5192    18      310.8552      Cuts: 19       56   12.98%
*     0+    0                          296.9308      270.5192             8.89%
*     0+    0                          284.8639      270.5192             5.04%
Detecting symmetries...

Repeating presolve.
Tried aggregator 2 times.
MIP Presolve eliminated 48 rows and 59 columns.
Aggregator did 2 substitutions.
Reduced MIP has 62 rows, 59 columns, and 228 nonzeros.
Reduced MIP has 49 binaries, 0 generals, 0 SOSs, and 0 indicators.
Presolve time = 0.00 sec. (0.20 ticks)
Probing time = 0.00 sec. (0.07 ticks)
Cover probing fixed 0 vars, tightened 11 bounds.
Tried aggregator 1 time.
Detecting symmetries...
MIP Presolve modified 66 coefficients.
Reduced MIP has 62 rows, 59 columns, and 228 nonzeros.
Reduced MIP has 49 binaries, 0 generals, 0 SOSs, and 0 indicators.
Presolve time = 0.00 sec. (0.14 ticks)
Represolve time = 0.00 sec. (0.57 ticks)
Probing time = 0.00 sec. (0.07 ticks)
Clique table members: 40.
MIP emphasis: balance optimality and feasibility.
MIP search method: dynamic search.
Parallel mode: deterministic, using up to 20 threads.
Root relaxation solution time = 0.00 sec. (0.21 ticks)

        Nodes                                         Cuts/
   Node  Left     Objective  IInf  Best Integer    Best Bound    ItCnt     Gap

*     0+    0                          284.8639      270.5192             5.04%
      0     0      270.5192    18      284.8639      270.5192       95    5.04%
      0     0      270.5192    18      284.8639      Cuts: 30      111    5.04%
      0     0      270.5192    18      284.8639       Cuts: 4      115    5.04%
      0     0        cutoff            284.8639      284.8639      115    0.00%
Elapsed time = 0.03 sec. (9.15 ticks, tree = 0.01 MB, solutions = 4)

Clique cuts applied:  3
Implied bound cuts applied:  5
Mixed integer rounding cuts applied:  1
Lift and project cuts applied:  1
Gomory fractional cuts applied:  2

Root node processing (before b&c):
  Real time             =    0.03 sec. (9.16 ticks)
Parallel b&c, 20 threads:
  Real time             =    0.00 sec. (0.00 ticks)
  Sync time (average)   =    0.00 sec.
  Wait time (average)   =    0.00 sec.
                          ------------
Total (root+branch&cut) =    0.03 sec. (9.16 ticks)

TSP solution for this instance: 0 2 3 10 9 8 7 4 6 5 1 11 
12
Warmstart X[1][0] == 1
Warmstart X[2][2] == 1
Warmstart X[3][3] == 1
Warmstart X[4][10] == 1
Warmstart X[5][9] == 1
Warmstart X[6][8] == 1
Warmstart X[7][7] == 1
Warmstart X[8][4] == 1
Warmstart X[9][6] == 1
Warmstart X[10][5] == 1
Warmstart X[11][1] == 1
---------------------------------------------
Calculate max stage gap for sortie.... 
Stage gap of 6 with smallest length = 19.5093 violated endurance constraint!
---------------------------------------------
Variable z[1][7] was set to 0.
Variable z[1][8] was set to 0.
Variable z[1][9] was set to 0.
Variable z[1][10] was set to 0.
Variable z[1][11] was set to 0.
Variable z[1][12] was set to 0.
Variable z[2][8] was set to 0.
Variable z[2][9] was set to 0.
Variable z[2][10] was set to 0.
Variable z[2][11] was set to 0.
Variable z[2][12] was set to 0.
Variable z[3][9] was set to 0.
Variable z[3][10] was set to 0.
Variable z[3][11] was set to 0.
Variable z[3][12] was set to 0.
Variable z[4][10] was set to 0.
Variable z[4][11] was set to 0.
Variable z[4][12] was set to 0.
Variable z[5][11] was set to 0.
Variable z[5][12] was set to 0.
Variable z[6][12] was set to 0.
Num constraint added = 5940
Warning:  Output names have been modified due to duplicate names or characters invalid in LP format.
Version identifier: 22.1.1.0 | 2022-11-28 | 9160aff4d
CPXPARAM_TimeLimit                               200
CPXPARAM_MIP_Tolerances_Integrality              0
1 of 1 MIP starts provided solutions.
MIP start 'm1' defined initial solution with objective 284.8639.
Tried aggregator 2 times.
MIP Presolve eliminated 7121 rows and 1820 columns.
MIP Presolve modified 2544 coefficients.
Aggregator did 42 substitutions.
Reduced MIP has 1428 rows, 2914 columns, and 45310 nonzeros.
Reduced MIP has 2893 binaries, 0 generals, 0 SOSs, and 0 indicators.
Presolve time = 0.06 sec. (151.20 ticks)
Probing fixed 265 vars, tightened 0 bounds.
Probing changed sense of 4 constraints.
Probing time = 0.04 sec. (96.79 ticks)
Cover probing fixed 0 vars, tightened 62 bounds.
Tried aggregator 2 times.
Detecting symmetries...
MIP Presolve eliminated 47 rows and 265 columns.
MIP Presolve modified 305 coefficients.
Aggregator did 12 substitutions.
Reduced MIP has 1369 rows, 2637 columns, and 36775 nonzeros.
Reduced MIP has 2616 binaries, 0 generals, 0 SOSs, and 0 indicators.
Presolve time = 0.03 sec. (63.52 ticks)
Probing time = 0.00 sec. (5.21 ticks)
Clique table members: 10737.
MIP emphasis: balance optimality and feasibility.
MIP search method: dynamic search.
Parallel mode: deterministic, using up to 20 threads.
Root relaxation solution time = 0.14 sec. (270.69 ticks)

        Nodes                                         Cuts/
   Node  Left     Objective  IInf  Best Integer    Best Bound    ItCnt     Gap

*     0+    0                          284.8639       42.4804            85.09%
      0     0      139.1769   432      284.8639      139.1769       43   51.14%
      0     0      151.4691   353      284.8639      Cuts: 66     1281   46.83%
      0     0      152.4004   400      284.8639  ZeroHalf: 46     1571   46.50%
      0     0      159.5872   379      284.8639  ZeroHalf: 30     2222   43.98%
      0     0      161.1947   346      284.8639  ZeroHalf: 22     2642   43.41%
      0     0      169.7066   358      284.8639   ZeroHalf: 7     3459   40.43%
Detecting symmetries...
      0     0      171.2976   411      284.8639       Cuts: 8     3882   39.87%
      0     0      172.4396   405      284.8639   ZeroHalf: 9     4126   39.47%
      0     0      174.8821   332      284.8639       Cuts: 8     4707   38.61%
      0     0      178.9882   199      284.8639      Cuts: 13     6214   37.17%
      0     0      180.1055   290      284.8639  ZeroHalf: 47     6621   36.77%
      0     0      182.4665   317      284.8639      Cuts: 23     6919   35.95%
      0     0      183.9983   292      284.8639  ZeroHalf: 10     7897   35.41%
      0     0      184.9081   332      284.8639      Cuts: 21     8666   35.09%
      0     0      185.4655   351      284.8639       Cuts: 8     9133   34.89%
      0     0      189.0190   281      284.8639   ZeroHalf: 9     9664   33.65%
      0     0      189.8145   313      284.8639   ZeroHalf: 8     9894   33.37%
      0     0      191.3415   303      284.8639      Cuts: 10    10454   32.83%
      0     0      191.3485   310      284.8639       Cuts: 4    10533   32.83%
      0     0      192.3236   298      284.8639       Cuts: 3    11807   32.49%
      0     0      192.5062   333      284.8639       Cuts: 4    12100   32.42%
      0     0      192.5062   329      284.8639       Cuts: 2    12105   32.42%
Detecting symmetries...
      0     2      192.5062   329      284.8639      192.5062    12105   32.42%
Elapsed time = 2.45 sec. (4439.54 ticks, tree = 0.02 MB, solutions = 1)
      2     3      192.9780   312      284.8639      192.5105    12350   32.42%
     12     9      282.9960    36      284.8639      192.9835    18633   32.25%
    157    26      215.5505   204      284.8639      197.1242    53728   30.80%
    341    99      267.7906    12      284.8639      202.1277   114177   29.04%
    521   213      277.3031    40      284.8639      202.1277   171018   29.04%
    563   282      267.4008    85      284.8639      203.6402   209410   28.51%
    665   314      266.5014   188      284.8639      204.8778   241514   28.08%
    884   416      274.2453    82      284.8639      204.8778   295923   28.08%
   1048   523      250.2881   124      284.8639      204.8778   352306   28.08%
   1769   971      231.5626   181      284.8639      208.5705   581933   26.78%
Elapsed time = 5.55 sec. (7595.38 ticks, tree = 1.02 MB, solutions = 1)
   2547  1234      269.2395   114      284.8639      208.5705   775145   26.78%
   3124  1574      236.9827   184      284.8639      223.3372   984329   21.60%
   4045  1719      279.8488   154      284.8639      241.1563  1124765   15.34%
   5130  2238      268.1809   102      284.8639      244.0681  1448636   14.32%
   5542  2374      277.6399   232      284.8639      248.6162  1666555   12.72%
   6779  2515        cutoff            284.8639      251.7769  1888064   11.62%

Performing restart 1

Repeating presolve.
Tried aggregator 2 times.
MIP Presolve eliminated 19 rows and 64 columns.
MIP Presolve modified 7352 coefficients.
Aggregator did 1 substitutions.
Reduced MIP has 1348 rows, 2572 columns, and 32177 nonzeros.
Reduced MIP has 2551 binaries, 0 generals, 0 SOSs, and 0 indicators.
Presolve time = 0.03 sec. (49.93 ticks)
Tried aggregator 1 time.
MIP Presolve eliminated 5 rows and 23 columns.
MIP Presolve modified 2 coefficients.
Reduced MIP has 1343 rows, 2549 columns, and 31997 nonzeros.
Reduced MIP has 2528 binaries, 0 generals, 0 SOSs, and 0 indicators.
Presolve time = 0.02 sec. (29.80 ticks)
Represolve time = 0.09 sec. (158.11 ticks)
   7231     0      202.5170   365      284.8639      Cuts: 13  2056915   10.77%
*  7231+    0                          284.2127      254.1880            10.56%
   7231     0      202.9206   365      284.2127      Cuts: 23  2057703   10.56%
   7231     0      204.5538   349      284.2127   ZeroHalf: 5  2060130   10.56%
   7231     0      206.6974   354      284.2127      Cuts: 10  2062837   10.56%
   7231     0      207.0789   379      284.2127      Cuts: 10  2063920   10.56%
   7231     0      207.1826   372      284.2127       Cuts: 4  2064210   10.56%
   7231     0      207.2247   358      284.2127       Cuts: 3  2064403   10.56%
   7231     0      207.3896   386      284.2127   ZeroHalf: 2  2064748   10.56%
   7231     2      207.3958   387      284.2127      254.1880  2064819   10.56%
   7232     3      207.4319   400      284.2127      254.1880  2066165   10.56%
   7238     5      273.1805    25      284.2127      254.1880  2070273   10.56%
   7259     5      279.4084   112      284.2127      254.1880  2074686   10.56%
Elapsed time = 17.91 sec. (26217.24 ticks, tree = 0.02 MB, solutions = 2)
   7276     9      277.1125    14      284.2127      254.1880  2082270   10.56%
   7318    10      258.1878    86      284.2127      254.1880  2097766   10.56%
   7387    11      277.0042    35      284.2127      254.1880  2103888   10.56%
   7510    15      282.5851   110      284.2127      254.1880  2117194   10.56%
   7842    53      269.6785   114      284.2127      254.1880  2155839   10.56%
   8074    31        cutoff            284.2127      254.1880  2221243   10.56%
   8323    32      283.6155    16      284.2127      254.1880  2276281   10.56%
   9055    46      267.5384    79      284.2127      254.1880  2314668   10.56%
  10680   122      261.1728    93      284.2127      254.1880  2482945   10.56%
  11040    16      273.8243   204      284.2127      254.1880  2573420   10.56%
Elapsed time = 26.76 sec. (35832.86 ticks, tree = 0.07 MB, solutions = 2)
  11072     9      279.3226   112      284.2127      254.1880  2594127   10.56%
  11151    10      256.4626    96      284.2127      254.1880  2623252   10.56%
  11295    18      220.5008   300      284.2127      254.1880  2639932   10.56%
  11394    14      252.3093   169      284.2127      254.1880  2695154   10.56%
  11509    15      279.4888   249      284.2127      254.1880  2720575   10.56%
  11562    11      223.3809   347      284.2127      254.1880  2743511   10.56%
  11623     8        cutoff            284.2127      254.1880  2771836   10.56%
  11657     8        cutoff            284.2127      254.1880  2785122   10.56%
  11696    11        cutoff            284.2127      254.1880  2793804   10.56%
  11725     9      226.6238   231      284.2127      254.1880  2814526   10.56%
Elapsed time = 33.19 sec. (45604.16 ticks, tree = 0.05 MB, solutions = 2)
  11767    13      228.4109   222      284.2127      254.1880  2825294   10.56%
  11806    16      254.0452   170      284.2127      254.1880  2838520   10.56%
  11887    12      275.5696    50      284.2127      254.1880  2866167   10.56%
  11958    21      234.1182   248      284.2127      254.1880  2883357   10.56%
  11999    13      273.8164   168      284.2127      254.1880  2909880   10.56%
  12046    24        cutoff            284.2127      254.1880  2927946   10.56%
  12099    17      255.7000   222      284.2127      254.1880  2952861   10.56%
  12120    10        cutoff            284.2127      255.8192  2958526    9.99%
  12149    16      261.9782   171      284.2127      258.2426  2960709    9.14%

GUB cover cuts applied:  11
Clique cuts applied:  1
Cover cuts applied:  7
Flow cuts applied:  1
Mixed integer rounding cuts applied:  4
Zero-half cuts applied:  62
Lift and project cuts applied:  1
Gomory fractional cuts applied:  1

Root node processing (before b&c):
  Real time             =    2.40 sec. (4346.54 ticks)
Parallel b&c, 20 threads:
  Real time             =   35.76 sec. (50472.34 ticks)
  Sync time (average)   =   17.93 sec.
  Wait time (average)   =    0.01 sec.
                          ------------
Total (root+branch&cut) =   38.16 sec. (54818.89 ticks)
Feasible solution found!
Truck nodes:
Stage 1 at customer 0 with arrival time is: 0
Stage 1 at customer 0 with departure time is: 0
Stage 2 at customer 1 with arrival time is: 21.6481
Stage 2 at customer 1 with departure time is: 21.6481
Stage 3 at customer 6 with arrival time is: 48.8766
Stage 3 at customer 6 with departure time is: 49.8766
Stage 4 at customer 4 with arrival time is: 53.1281
Stage 4 at customer 4 with departure time is: 60.7006
Stage 5 at customer 7 with arrival time is: 99.597
Stage 5 at customer 7 with departure time is: 99.597
Stage 6 at customer 8 with arrival time is: 115.857
Stage 6 at customer 8 with departure time is: 115.857
Stage 7 at customer 9 with arrival time is: 160.426
Stage 7 at customer 9 with departure time is: 160.426
Stage 8 at customer 10 with arrival time is: 173.118
Stage 8 at customer 10 with departure time is: 173.118
Stage 9 at customer 3 with arrival time is: 219.779
Stage 9 at customer 3 with departure time is: 219.779
Stage 10 at customer 2 with arrival time is: 225.48
Stage 10 at customer 2 with departure time is: 225.48
Stage 11 at customer 11 with arrival time is: 284.213
Stage 11 at customer 11 with departure time is: 284.213
Truck arcs:
Arc 1 connecting 0 and 1 with cost 21.6481 
Arc 2 connecting 1 and 6 with cost 27.2285 
Arc 3 connecting 6 and 4 with cost 3.25155 
Arc 4 connecting 4 and 7 with cost 38.8964 
Arc 5 connecting 7 and 8 with cost 16.2602 
Arc 6 connecting 8 and 9 with cost 44.5693 
Arc 7 connecting 9 and 10 with cost 12.6916 
Arc 8 connecting 10 and 3 with cost 46.6606 
Arc 9 connecting 3 and 2 with cost 5.70105 
Arc 10 connecting 2 and 11 with cost 58.733 
Customer 5 served by drone.
Drone fly from 6 at stage 3 to serve 5 and then fly back to 4 at stage 4. 
Truck arcs during this sortie: 6--->4
Truck travel time from stage 3 to 4 is: 3.25155
Total drone travel time: 9.82399
Drone arrival time: 59.7006
Truck arrival time: 53.1281
Truck departure time = max(d/a, t/a) plus (sl/sr): 60.7006
Done!
-------------------------Re-calculated objective-----------------------
284.213
------------------------------------------------------------------------
Solve time: 38.163
OBJECTIVE VALUE: 284.213, NUMBER OF SORTIES: 1.
Number of revisit: 0
In write mode
